LAMMPS (29 Oct 2020)
OMP_NUM_THREADS environment is not set. Defaulting to 1 thread. (src/comm.cpp:94)
  using 1 OpenMP thread(s) per MPI task
units		    real
atom_style	    full

read_data	    water_eq.data
Reading data file ...
  orthogonal box = (0.0000000 0.0000000 0.0000000) to (12.464486 12.464486 12.443718)
  1 by 1 by 1 MPI processor grid
  reading atoms ...
  192 atoms
  reading velocities ...
  192 velocities
  scanning bonds ...
  2 = max bonds/atom
  scanning angles ...
  1 = max angles/atom
  reading bonds ...
  128 bonds
  reading angles ...
  64 angles
Finding 1-2 1-3 1-4 neighbors ...
  special bond factors lj:    0.0      0.0      0.0     
  special bond factors coul:  0.0      0.0      0.0     
     2 = max # of 1-2 neighbors
     1 = max # of 1-3 neighbors
     1 = max # of 1-4 neighbors
     2 = max # of special neighbors
  special bonds CPU = 0.000 seconds
  read_data CPU = 0.002 seconds

pair_style	    lj/cut/coul/long 9.8 9.8
kspace_style	pppm 1.0e-4

pair_coeff  	1 1 0.15535 3.166
pair_coeff  	* 2 0.0000 0.0000

bond_style	    harmonic
angle_style	    harmonic
dihedral_style	none
improper_style	none

bond_coeff	    1 1000.00 1.000
angle_coeff	    1 100.0 109.47

special_bonds   lj/coul 0.0 0.0 0.5
Finding 1-2 1-3 1-4 neighbors ...
  special bond factors lj:    0.0      0.0      0.5     
  special bond factors coul:  0.0      0.0      0.5     
     2 = max # of 1-2 neighbors
     1 = max # of 1-3 neighbors
     1 = max # of 1-4 neighbors
     2 = max # of special neighbors
  special bonds CPU = 0.000 seconds
neighbor        2.0 bin
neigh_modify	every 1 delay 10 check yes
fix		        2 all nvt temp 300.0 300.0 1000 tchain 1
velocity	    all create 300 432567 dist uniform
dump            1 all atom 100 water_spce.lammpstrj
dump_modify     1 sort id
thermo_style    custom step temp epair emol etotal press vol density
thermo          100
run             5000
PPPM initialization ...
  using 12-bit tables for long-range coulomb (src/kspace.cpp:328)
  G vector (1/distance) = 0.28581223
  grid = 8 8 8
  stencil order = 5
  estimated absolute RMS force accuracy = 0.013285973
  estimated relative force accuracy = 4.0010312e-05
  using double precision FFTW3
  3d grid and FFT values/proc = 3375 512
Neighbor list info ...
  update every 1 steps, delay 10 steps, check yes
  max neighbors/atom: 2000, page size: 100000
  master list distance cutoff = 11.8
  ghost atom cutoff = 11.8
  binsize = 5.9, bins = 3 3 3
  1 neighbor lists, perpetual/occasional/extra = 1 0 0
  (1) pair lj/cut/coul/long, perpetual
      attributes: half, newton on
      pair build: half/bin/newton
      stencil: half/bin/3d/newton
      bin: standard
Per MPI rank memory allocation (min/avg/max) = 8.467 | 8.467 | 8.467 Mbytes
Step Temp E_pair E_mol TotEng Press Volume Density 
       0          300   -704.48776 0.0063226804   -533.68102    30956.149    1933.2985   0.99030996 
     100    274.45181   -750.84113    67.146357   -527.43983   -1868.8587    1933.2985   0.99030996 
     200    262.60152   -780.69658    104.40687   -526.78154   -31897.554    1933.2985   0.99030996 
     300    290.38649   -753.69737    59.029469    -529.3408     9786.808    1933.2985   0.99030996 
     400    252.04086   -748.85653    81.517314   -523.84361    28614.362    1933.2985   0.99030996 
     500    254.73676    -765.3185    95.538673   -524.74935   -11710.202    1933.2985   0.99030996 
     600    291.64193   -788.79873    99.459894   -523.29696   -23004.881    1933.2985   0.99030996 
     700    263.53629   -737.87069    66.245413   -521.58492    12934.613    1933.2985   0.99030996 
     800     278.2937   -738.03161     58.82021   -520.76914    7865.1251    1933.2985   0.99030996 
     900    303.20756   -772.68797    81.389129   -518.67225   -17436.612    1933.2985   0.99030996 
    1000    285.95253   -765.44875    88.686188   -513.95985   -6384.2838    1933.2985   0.99030996 
    1100    280.20485   -745.05117    72.460685   -513.06014    11133.998    1933.2985   0.99030996 
    1200    295.43087   -755.29959    77.847174   -509.25337    1396.8855    1933.2985   0.99030996 
    1300    291.07115   -757.63012    84.806048   -507.10716   -7887.8804    1933.2985   0.99030996 
    1400    307.92627    -757.7665    78.831662   -503.62173    3061.3755    1933.2985   0.99030996 
    1500    298.80241   -754.00956    84.392076    -499.4989    584.66386    1933.2985   0.99030996 
    1600    283.92249   -744.85769    88.045328   -495.16543   -1239.9375    1933.2985   0.99030996 
    1700    314.38092   -746.22567    72.738538   -494.49916    4414.2145    1933.2985   0.99030996 
    1800    305.14074   -750.89466    88.656854   -488.51059   -2778.3622    1933.2985   0.99030996 
    1900    278.52873   -741.21618    98.288789   -484.35131   -6170.1706    1933.2985   0.99030996 
    2000    306.51602   -738.81844    80.976989   -483.33123    4680.3886    1933.2985   0.99030996 
    2100    337.97058   -753.10944    80.702253    -479.9888    1965.7465    1933.2985   0.99030996 
    2200     316.5253   -745.17117    89.341024    -475.6213    586.80913    1933.2985   0.99030996 
    2300    304.02226   -728.49494      81.8558   -473.54871   -868.56179    1933.2985   0.99030996 
    2400    314.27704   -734.50713    85.880219   -469.69808   -6053.0186    1933.2985   0.99030996 
    2500    338.81518   -739.41767    79.539011   -466.97941   -1054.7342    1933.2985   0.99030996 
    2600    318.82917   -725.30348    79.296572   -464.48639    2901.4208    1933.2985   0.99030996 
    2700    310.24495   -727.14497    89.372386   -461.13936    1474.7814    1933.2985   0.99030996 
    2800     312.5106   -730.59992    91.901041   -460.77575   -555.72083    1933.2985   0.99030996 
    2900    309.33107   -723.58255    89.432227   -458.03741   -3445.3498    1933.2985   0.99030996 
    3000    336.53117   -727.05847    77.954001   -457.50559     3899.618    1933.2985   0.99030996 
    3100    328.60168   -722.12777    79.700598   -455.34283    -3056.712    1933.2985   0.99030996 
    3200    342.97721   -737.10986    88.045371   -453.79565   -6367.6614    1933.2985   0.99030996 
    3300    324.57185   -715.71507    77.316401   -453.60865    7860.8754    1933.2985   0.99030996 
    3400    306.26458   -709.05663    82.066485   -452.62308    2633.5692    1933.2985   0.99030996 
    3500    323.65274   -734.83134    99.295059   -451.26954   -13211.199    1933.2985   0.99030996 
    3600    351.70458   -733.58977    78.239419   -455.11272    1615.1268    1933.2985   0.99030996 
    3700    319.85787   -714.46322    78.124125    -454.2329    11880.853    1933.2985   0.99030996 
    3800    344.36158    -738.5228    86.017198   -456.44859    -9447.363    1933.2985   0.99030996 
    3900    328.98768   -741.44319    99.455748   -454.68333   -3791.3925    1933.2985   0.99030996 
    4000    317.76515   -723.55544    85.397451   -457.24326    7976.1579    1933.2985   0.99030996 
    4100     317.4519   -721.73516     82.72102   -458.27776    4100.5229    1933.2985   0.99030996 
    4200    302.60463   -724.73042    93.882768   -458.56433   -9835.6887    1933.2985   0.99030996 
    4300    332.36993   -731.75255    80.305785   -462.21703   -3469.5378    1933.2985   0.99030996 
    4400    310.30429   -712.93681    73.209211    -463.0606    7607.7818    1933.2985   0.99030996 
    4500    313.41818   -723.11188    78.777811   -465.89422   -6087.5518    1933.2985   0.99030996 
    4600    333.15064   -741.63716    84.769088   -467.19385   -7236.1396    1933.2985   0.99030996 
    4700    314.61708   -727.04008    79.825757    -468.0919    8753.9115    1933.2985   0.99030996 
    4800     316.5573   -733.26712    81.831457    -471.2086    2698.4272    1933.2985   0.99030996 
    4900    292.11474   -732.36427    92.543004    -473.5102   -10438.466    1933.2985   0.99030996 
    5000    310.38425    -745.0433    92.522364   -475.80841    808.53212    1933.2985   0.99030996 
Loop time of 4.74303 on 1 procs for 5000 steps with 192 atoms

Performance: 91.081 ns/day, 0.264 hours/ns, 1054.178 timesteps/s
99.8% CPU use with 1 MPI tasks x 1 OpenMP threads

MPI task timing breakdown:
Section |  min time  |  avg time  |  max time  |%varavg| %total
---------------------------------------------------------------
Pair    | 3.9001     | 3.9001     | 3.9001     |   0.0 | 82.23
Bond    | 0.045114   | 0.045114   | 0.045114   |   0.0 |  0.95
Kspace  | 0.45933    | 0.45933    | 0.45933    |   0.0 |  9.68
Neigh   | 0.2038     | 0.2038     | 0.2038     |   0.0 |  4.30
Comm    | 0.081048   | 0.081048   | 0.081048   |   0.0 |  1.71
Output  | 0.015473   | 0.015473   | 0.015473   |   0.0 |  0.33
Modify  | 0.024995   | 0.024995   | 0.024995   |   0.0 |  0.53
Other   |            | 0.01314    |            |       |  0.28

Nlocal:        192.000 ave         192 max         192 min
Histogram: 1 0 0 0 0 0 0 0 0 0
Nghost:        4440.00 ave        4440 max        4440 min
Histogram: 1 0 0 0 0 0 0 0 0 0
Neighs:        65415.0 ave       65415 max       65415 min
Histogram: 1 0 0 0 0 0 0 0 0 0

Total # of neighbors = 65415
Ave neighs/atom = 340.70312
Ave special neighs/atom = 2.0000000
Neighbor list builds = 168
Dangerous builds = 0
Total wall time: 0:00:04
